0
2
2
3
4
6
6
6
7
9
10
10
10
10
11
12
13
14
14
16
11
2
3
4
4
4
4
5
6
6
7
8
8
9
9
10
12
12
12
12
9
1
2
3
3
3
3
5
6
7
7
8
8
9
10
10
10
11
12
13
13
2
3
4
4
4
4
4
5
6
6
7
8
10
10
11
11
13
14
14
9
1
1
2
3
3
4
5
5
6
6
7
8
8
8
9
11
11
11
11
12
